LAMMPS (10 Feb 2021)
OMP_NUM_THREADS environment is not set. Defaulting to 1 thread. (src/comm.cpp:94)
  using 1 OpenMP thread(s) per MPI task
# Harmonic beadspring benchmark, with yukawa potential

units		lj
atom_style	angle
special_bonds lj 1.0 1.0 1.0

read_data	lammps.main.conf
Reading data file ...
  orthogonal box = (-25.000000 -25.000000 -25.000000) to (25.000000 25.000000 25.000000)
  1 by 1 by 1 MPI processor grid
  reading atoms ...
  21 atoms
  scanning bonds ...
  1 = max bonds/atom
  scanning angles ...
  1 = max angles/atom
  reading bonds ...
  20 bonds
  reading angles ...
  19 angles
Finding 1-2 1-3 1-4 neighbors ...
  special bond factors lj:    1        1        1       
  special bond factors coul:  0        0        0       
     2 = max # of 1-2 neighbors
     2 = max # of 1-3 neighbors
     4 = max # of 1-4 neighbors
     6 = max # of special neighbors
  special bonds CPU = 0.000 seconds
  read_data CPU = 0.001 seconds

neighbor	0.4 bin
neigh_modify	every 1 delay 1

bond_style  harmonic
bond_coeff	1 5.0 2.0

pair_style	hybrid/overlay lj/cut 1.12 yukawa 2.0 5.0

# lj/cut
pair_modify pair lj/cut shift yes
pair_coeff	* * lj/cut 1.0 1.0 1.12

# yukawa
pair_coeff * * yukawa 0.0
pair_coeff 1 1 yukawa 1.0

fix		1 all nve
fix		2 all langevin 1.0 1.0 1.0 904297

thermo  100
timestep	0.00012

run		10000
WARNING: Angles are defined but no angle style is set (src/force.cpp:206)
WARNING: Likewise 1-3 special neighbor interactions != 1.0 (src/force.cpp:208)
Neighbor list info ...
  update every 1 steps, delay 1 steps, check yes
  max neighbors/atom: 2000, page size: 100000
  master list distance cutoff = 5.4
  ghost atom cutoff = 5.4
  binsize = 2.7, bins = 19 19 19
  2 neighbor lists, perpetual/occasional/extra = 2 0 0
  (1) pair lj/cut, perpetual
      attributes: half, newton on
      pair build: half/bin/newton
      stencil: half/bin/3d/newton
      bin: standard
  (2) pair yukawa, perpetual, copy from (1)
      attributes: half, newton on
      pair build: copy
      stencil: none
      bin: none
Per MPI rank memory allocation (min/avg/max) = 5.620 | 5.620 | 5.620 Mbytes
Step Temp E_pair E_mol TotEng Press 
       0            0    1.0140023    4.7619048    5.7759071 0.0018241743 
     100  0.035534997    1.0070843    4.7587909    5.8166396   0.00182282 
     200  0.073245122   0.99342796    4.7512558    5.8493196 0.0018141834 
     300   0.10187171    0.9782382    4.7402571    5.8640263 0.0018010739 
     400   0.14742517   0.96124195    4.7247136    5.8965629 0.0017870055 
     500   0.17964536   0.94356856    4.7057003    5.9059051 0.0017687164 
     600   0.21901618   0.92470909    4.6854221    5.9230114 0.0017503682 
     700   0.27191658   0.90536955    4.6626647    5.9564865 0.0017328748 
     800   0.31114864   0.88680233    4.6369661    5.9682665 0.0017132428 
     900   0.32682139   0.86664786    4.6107022    5.9442378 0.0016911503 
    1000   0.36568642   0.84934299    4.5831351    5.9548872 0.0016765418 
    1100   0.41323412   0.83563827    4.5550988    5.9810715 0.0016659688 
    1200   0.43333319   0.81667711    4.5250653    5.9607899 0.0016454653 
    1300   0.49121161   0.79249488    4.4921993    5.9864251 0.0016261308 
    1400   0.52973598   0.75966492    4.4560138    5.9724444 0.0015952056 
    1500   0.63670282   0.71618789    4.4156292    6.0413925 0.0015639593 
    1600   0.72331095   0.66368172    4.3687217    6.0657047 0.0015191593 
    1700   0.80468295   0.60084701    4.3151122    6.0655063 0.0014620113 
    1800   0.86310245   0.52362257    4.2561512    6.0127772  0.001386749 
    1900    1.0493732   0.44444678    4.1884525    6.1320039 0.0013256074 
    2000    1.1647865   0.37654869    4.1116778    6.1522072 0.0012572338 
    2100     1.306003   0.32044785    4.0243078    6.2104743 0.0011993215 
    2200    1.3869005   0.26947955    3.9264038    6.1771697 0.0011326826 
    2300    1.5028918   0.21780217    3.8178439    6.1826343 0.0010718193 
    2400    1.5819715   0.16730723    3.6964185     6.123685 0.0010050378 
    2500    1.5870327   0.12646507    3.5674864     5.961141 0.00094006351 
    2600    1.6301762  0.096771256    3.4324078    5.8580023 0.00089647624 
    2700     1.838043  0.076165958    3.2891804     5.991122 0.00089217424 
    2800    2.0764617    0.0592603    3.1316121    6.1572462 0.00090002515 
    2900    2.2587171  0.046439262    2.9609847    6.2341626 0.00090009934 
    3000    2.4478421  0.039153148    2.7815203    6.3175907 0.00090698947 
    3100     2.464618  0.034766225    2.5939967    6.1496457 0.00089211759 
    3200    2.6266002  0.031486131    2.4031732    6.1869453 0.00090054803 
    3300    2.6844809  0.029456814    2.2088705       6.0733 0.00089545522 
    3400    2.8401265  0.027551283    2.0152128    6.1000877 0.00090527933 
    3500    3.0355851  0.025689033    1.8215582    6.1837974 0.00091863898 
    3600    3.1697196  0.023935546    1.6322215     6.184328 0.00091918559 
    3700    3.3414143  0.022258008    1.4494776    6.2451846 0.00092260258 
    3800    3.5085023  0.020623862    1.2768037    6.3095736 0.00092198513 
    3900     3.538553  0.019065823    1.1182885    6.1924301 0.00089580179 
    4000    3.5492828    0.0176194    0.9784332    6.0664565 0.00086326895 
    4100    3.5350589  0.016210222   0.85700156    5.9232959 0.00082348188 
    4200    3.5341256  0.014905623   0.75825029    5.8219067 0.00078239712 
    4300    3.4413105  0.013701051   0.68240377    5.6122626 0.00072376189 
    4400    3.3491035   0.01256506   0.62803627    5.4250349 0.00066273768 
    4500    3.2292259  0.011492249   0.59521306    5.2198852 0.00059482534 
    4600    3.2136909  0.010468176   0.58220859    5.1836638 0.00054158777 
    4700    3.1954335 0.0095009043   0.58851908    5.1629249 0.00048484009 
    4800    3.0596525 0.0086183036   0.61776681    4.9973173 0.00040714177 
    4900    2.8770527 0.0078041299   0.66603696    4.7839163 0.00032073534 
    5000    2.7800206 0.0070812564    0.7322485    4.7107878 0.00024743154 
    5100    2.8568069 0.0064065617   0.81527737    4.9028366 0.00019973412 
    5200    2.8009372 0.0057819071   0.91743965    4.9245604 0.00012845598 
    5300    2.6266027 0.0052235838    1.0353402    4.7928533 3.7803075e-05 
    5400    2.4858252  0.004738295    1.1669583    4.7228754 -4.7180256e-05 
    5500    2.3688982 0.0043073505    1.3098525    4.6983002 -0.00012820233 
    5600     2.228683 0.0039299254    1.4619836    4.6497463 -0.00021248913 
    5700    2.1595542  0.003592874    1.6218287     4.710499 -0.00028490417 
    5800    1.9709929  0.003296364    1.7858143    4.6048149 -0.00037487527 
    5900    1.7710144 0.0030430763    1.9485702    4.4816339 -0.00046373124 
    6000    1.6689364 0.0028190858    2.1099712    4.4969851 -0.00053459902 
    6100    1.5093167 0.0026247602    2.2616975    4.4204889 -0.00061068778 
    6200    1.3912059 0.0024548293     2.400984    4.3908758 -0.0006756722 
    6300    1.2495809 0.0023122831    2.5217107    4.3091386 -0.00073849501 
    6400    1.1696188 0.0021861445    2.6238794    4.2969495 -0.00078603994 
    6500     1.128098 0.0020766365    2.7104572    4.3241025 -0.00082283163 
    6600     1.069697 0.0019861386    2.7743924    4.3045172 -0.00085598183 
    6700    1.0198291 0.0019091014    2.8131017    4.2719095 -0.0008811581 
    6800    1.0515642  0.001842359    2.8281201    4.3321971 -0.00088717364 
    6900    1.0720637 0.0017847471    2.8193426    4.3526469 -0.00088901114 
    7000     1.174119 0.0017366541    2.7861568    4.4652063 -0.00087112318 
    7100    1.2229352 0.0016970261    2.7298313    4.4785785 -0.00085541138 
    7200    1.3826305 0.0016669768    2.6577415    4.6345949 -0.00081709017 
    7300    1.5269482 0.0016459366    2.5705893    4.7535898 -0.00077625315 
    7400    1.6269378 0.0016324148    2.4686988     4.794528 -0.00073730171 
    7500    1.7034409 0.0016257536    2.3595396    4.7946524 -0.00069862429 
    7600    1.7491584 0.0016220357    2.2466522    4.7470719 -0.0006620429 
    7700    1.8850932 0.0016261371    2.1283292    4.8229456 -0.00060766607 
    7800    1.9289795 0.0016393017    2.0042143    4.7615387 -0.00056435136 
    7900    2.1317359 0.0016629494    1.8740844    4.9210844 -0.00049176778 
    8000    2.0818674 0.0016961124    1.7457786    4.7215711 -0.00045767901 
    8100    2.1546687 0.0017385707     1.625138    4.7049748 -0.00040353861 
    8200    2.2268978  0.001786968     1.513395    4.6964646 -0.00034912356 
    8300    2.2785673 0.0018391534     1.413914    4.6708492 -0.00029876424 
    8400    2.2943688 0.0018914281    1.3260612    4.6056224 -0.000254951 
    8500    2.3051925 0.0019515354    1.2498729    4.5449566 -0.00021270331 
    8600    2.3183677 0.0020240651     1.182107    4.4960849 -0.00017029899 
    8700    2.3571313 0.0021046497    1.1230141    4.4924492 -0.00012404081 
    8800    2.3510048 0.0021969836    1.0726188    4.4333941 -8.4637154e-05 
    8900    2.3223659 0.0022988457    1.0329428    4.3529073 -5.0614046e-05 
    9000    2.3499546 0.0024058162    1.0057872    4.3652711 -9.6434231e-06 
    9100    2.3492938 0.0025285997   0.98904513    4.3477077 2.586258e-05 
    9200    2.2655327 0.0026589842   0.97935063    4.2184849 4.626441e-05 
    9300    2.3355809 0.0028038697   0.97560944    4.3149574 9.0549644e-05 
    9400    2.3722224 0.0029721041   0.97517708    4.3670384 0.00012923272 
    9500    2.3862441 0.0031597089   0.98138766    4.3934675 0.00016291358 
    9600    2.3391998 0.0033628734   0.99030409    4.3353809 0.00018588549 
    9700     2.235603 0.0035677353   0.99816588    4.1954522 0.00019829748 
    9800    2.1994828  0.003793657    1.0057128    4.1516248 0.00022022868 
    9900    2.1763317   0.00434172     1.013427     4.126814 0.00024564285 
   10000    2.1548528 0.0086362967    1.0204885    4.1074859 0.00027688045 
Loop time of 0.041353 on 1 procs for 10000 steps with 21 atoms

Performance: 2507194.928 tau/day, 241820.498 timesteps/s
90.4% CPU use with 1 MPI tasks x 1 OpenMP threads

MPI task timing breakdown:
Section |  min time  |  avg time  |  max time  |%varavg| %total
---------------------------------------------------------------
Pair    | 0.021515   | 0.021515   | 0.021515   |   0.0 | 52.03
Bond    | 0.0027232  | 0.0027232  | 0.0027232  |   0.0 |  6.59
Neigh   | 0.00038815 | 0.00038815 | 0.00038815 |   0.0 |  0.94
Comm    | 0.0013204  | 0.0013204  | 0.0013204  |   0.0 |  3.19
Output  | 0.0028586  | 0.0028586  | 0.0028586  |   0.0 |  6.91
Modify  | 0.010332   | 0.010332   | 0.010332   |   0.0 | 24.98
Other   |            | 0.002216   |            |       |  5.36

Nlocal:        21.0000 ave          21 max          21 min
Histogram: 1 0 0 0 0 0 0 0 0 0
Nghost:        2.00000 ave           2 max           2 min
Histogram: 1 0 0 0 0 0 0 0 0 0
Neighs:        75.0000 ave          75 max          75 min
Histogram: 1 0 0 0 0 0 0 0 0 0

Total # of neighbors = 75
Ave neighs/atom = 3.5714286
Ave special neighs/atom = 5.4285714
Neighbor list builds = 21
Dangerous builds = 0
Total wall time: 0:00:00
